	0	1	2	3	4	5	6	7	8
0	0	665	323	172	267	214	356	231	50
1	665	0	575	836	480	789	732	817	652
2	323	575	0	428	128	537	649	553	360
3	172	836	428	0	412	211	414	205	195
4	267	480	128	412	0	470	550	491	288
5	214	789	537	211	470	0	209	28	182
6	356	732	649	414	550	209	0	225	307
7	231	817	553	205	491	28	225	0	203
8	50	652	360	195	288	182	307	203	0